
Gurobi 11.0.3 (linux64) logging started Sat Nov 23 06:41:42 2024

Set parameter LogFile to value "/home/yihong/Coding/OR_SUC/SUC_results_bigM100000_thread4/case24_ieee_rts_theta0.5_epsilon0.05_gurobi_seed500000_num_gen100_N_WDR50_load_scaling_factor1_proposed_T24quadra_cost.txt"
Set parameter TimeLimit to value 3600
Gurobi Optimizer version 11.0.3 build v11.0.3rc0 (linux64 - "Ubuntu 20.04.6 LTS")

CPU model: AMD EPYC 7532 32-Core Processor, instruction set [SSE2|AVX|AVX2]
Thread count: 64 physical cores, 128 logical processors, using up to 4 threads

Optimize a model with 51892 rows, 29811 columns and 708694 nonzeros
Model fingerprint: 0x13bebc3b
Model has 2400 quadratic constraints
Variable types: 27411 continuous, 2400 integer (2400 binary)
Coefficient statistics:
  Matrix range     [3e-04, 2e+03]
  QMatrix range    [2e-03, 8e-03]
  QLMatrix range   [6e-02, 6e+01]
  Objective range  [1e+00, 1e+00]
  Bounds range     [1e+00, 1e+00]
  RHS range        [1e+00, 9e+03]
Presolve removed 42056 rows and 12909 columns
Presolve time: 0.25s
Presolved: 9836 rows, 16902 columns, 62827 nonzeros
Presolved model has 2400 quadratic constraint(s)
Variable types: 14502 continuous, 2400 integer (2400 binary)

Root relaxation: objective 5.035516e+04, 8285 iterations, 0.20 seconds (0.29 work units)

    Nodes    |    Current Node    |     Objective Bounds      |     Work
 Expl Unexpl |  Obj  Depth IntInf | Incumbent    BestBd   Gap | It/Node Time

H    0     0                    682581.22768 50355.1557  92.6%     -    0s
*    0     0               0    682581.22768 50355.1557  92.6%     -    0s
     0     0 434161.931    0  648 682581.228 434161.931  36.4%     -    1s
     0     0 658522.021    0  291 682581.228 658522.021  3.52%     -    1s
     0     0 658570.753    0   58 682581.228 658570.753  3.52%     -    1s
     0     0 658672.512    0   57 682581.228 658672.512  3.50%     -    1s
     0     0 658675.747    0   57 682581.228 658675.747  3.50%     -    1s
     0     0 658675.747    0   57 682581.228 658675.747  3.50%     -    1s
     0     0 658675.747    0   57 682581.228 658675.747  3.50%     -    1s
     0     2 658675.747    0   57 682581.228 658675.747  3.50%     -    2s
   161   191 658881.151   20   33 682581.228 658687.827  3.50%  31.9    5s
H  543   308                    659223.41637 658687.827  0.08%  28.0    8s
*  543   308              79    659223.41637 658687.827  0.08%  28.0    8s

Cutting planes:
  Gomory: 4
  Implied bound: 281
  MIR: 34
  Flow cover: 67
  RLT: 370
  Relax-and-lift: 75

Explored 581 nodes (37576 simplex iterations) in 9.16 seconds (14.07 work units)
Thread count was 4 (of 128 available processors)

Solution count 3: 659223 659223 682581 

Optimal solution found (tolerance 1.00e-03)
Warning: max constraint violation (5.6688e-07) exceeds tolerance
Best objective 6.592234163721e+05, best bound 6.586878269869e+05, gap 0.0812%
